c 
c G(k,n,p) graph
c graph gen seed     : 1444
c number of vertices : 25
c max number of edges: 500
c number of classes  : 2
c edge density       : 0.600000
c edge probability   : 1.200000
c data structure     : dense
c
c           Graph Stats
c number of vertices  : 25
c nonisolated vertices: 25
c number of edges     : 150
c edge density        : 0.500000
c max degree          : 15
c avg degree          : 12.00
c min degree          : 10
p col 25 150
e 1 2
e 1 4
e 1 6
e 1 10
e 1 16
e 1 18
e 1 20
e 1 23
e 1 25
e 2 4
e 2 6
e 2 10
e 2 16
e 2 18
e 2 20
e 2 23
e 2 25
e 3 5
e 3 7
e 3 8
e 3 9
e 3 11
e 3 12
e 3 13
e 3 14
e 3 15
e 3 17
e 3 19
e 3 21
e 3 22
e 3 24
e 4 6
e 4 10
e 4 16
e 4 18
e 4 20
e 4 23
e 4 25
e 5 7
e 5 8
e 5 9
e 5 11
e 5 12
e 5 13
e 5 14
e 5 15
e 5 17
e 5 19
e 5 21
e 5 22
e 5 24
e 6 10
e 6 16
e 6 18
e 6 20
e 6 23
e 6 25
e 7 8
e 7 9
e 7 11
e 7 12
e 7 13
e 7 14
e 7 15
e 7 17
e 7 19
e 7 21
e 7 22
e 7 24
e 8 9
e 8 11
e 8 12
e 8 13
e 8 14
e 8 15
e 8 17
e 8 19
e 8 21
e 8 22
e 8 24
e 9 11
e 9 12
e 9 13
e 9 14
e 9 15
e 9 17
e 9 19
e 9 21
e 9 22
e 9 24
e 10 16
e 10 18
e 10 20
e 10 23
e 10 25
e 11 12
e 11 13
e 11 14
e 11 15
e 11 17
e 11 19
e 11 21
e 11 22
e 11 24
e 12 13
e 12 14
e 12 15
e 12 17
e 12 19
e 12 21
e 12 22
e 12 24
e 13 14
e 13 15
e 13 17
e 13 19
e 13 21
e 13 22
e 13 24
e 14 15
e 14 17
e 14 19
e 14 21
e 14 22
e 14 24
e 15 17
e 15 19
e 15 21
e 15 22
e 15 24
e 16 18
e 16 20
e 16 23
e 16 25
e 17 19
e 17 21
e 17 22
e 17 24
e 18 20
e 18 23
e 18 25
e 19 21
e 19 22
e 19 24
e 20 23
e 20 25
e 21 22
e 21 24
e 22 24
e 23 25
